(set-logic HORN)
(set-info :source |
    Benchmark: 
    Output by Princess (http://www.philipp.ruemmer.org/princess.shtml)
|)
(declare-heap Heap Addr HeapObject
 defObj
 ((HeapObject 0) (node 0)) (
  (
   (O_Int (getInt Int))
   (O_UInt (getUInt Int))
   (O_Addr (getAddr Addr))
   (O_AddrRange (getAddrRange AddrRange))
   (O_node (getnode node))
   (defObj)
  )
  (
   (node (|node::next| Addr) (|node::data| Int))
  )
))
(declare-fun _Glue8 (Addr Int Addr Addr Heap HeapObject) Bool)
(declare-fun _Glue11 (Int Addr Heap Addr HeapObject) Bool)
(declare-fun _Glue6 (Heap Addr HeapObject) Bool)
(declare-fun inv_main581_3 (Heap Int Addr Addr) Bool)
(declare-fun _Glue0 (Addr Heap Int Addr HeapObject) Bool)
(declare-fun _Glue13 (Addr Int Addr Heap) Bool)
(declare-fun _Glue14 (Addr Int Heap Addr HeapObject) Bool)
(declare-fun _Glue10 (Heap Int Addr Addr HeapObject) Bool)
(declare-fun _Glue4 (Addr Heap HeapObject) Bool)
(declare-fun inv_main_28 () Bool)
(declare-fun inv_main_20 (Heap Addr Int Addr) Bool)
(declare-fun _Glue12 (Addr Heap Int Addr HeapObject) Bool)
(declare-fun inv_main600_3 (Heap Addr Int Addr) Bool)
(declare-fun Inv_Heap (Addr HeapObject) Bool)
(assert (forall ((var0 node) (var1 Int) (var2 Int) (var3 Addr) (var4 Heap) (var5 HeapObject) (var6 Addr)) (or (not (and (and (Inv_Heap var6 var5) (inv_main_20 var4 var3 var2 var6)) (and (and (and (and (not (= var2 var1)) (= (read var4 var6) var5)) (= (getnode var5) var0)) (= (|node::data| var0) var1)) (valid var4 var6)))) inv_main_28)))
(assert (forall ((var0 node) (var1 HeapObject) (var2 Int) (var3 Addr) (var4 Int) (var5 Addr) (var6 Heap)) (or (not (and (inv_main_20 var6 var5 var4 var3) (and (and (and (and (not (= var4 var2)) (= (read var6 var3) var1)) (= (getnode var1) var0)) (= (|node::data| var0) var2)) (not (valid var6 var3))))) inv_main_28)))
(assert (forall ((var0 Int) (var1 Addr) (var2 Heap) (var3 HeapObject) (var4 Addr)) (or (not (and (and (Inv_Heap var4 var3) (inv_main_20 var2 var1 (+ var0 (- 1)) var4)) (and (= (read var2 var4) var3) (valid var2 var4)))) (_Glue11 var0 var1 var2 var4 var3))))
(assert (forall ((var0 HeapObject) (var1 Addr) (var2 Int) (var3 Addr) (var4 Heap)) (or (not (and (inv_main_20 var4 var3 (+ var2 (- 1)) var1) (and (= (read var4 var1) var0) (not (valid var4 var1))))) (_Glue11 var2 var3 var4 var1 var0))))
(assert (forall ((var0 HeapObject) (var1 Addr) (var2 node) (var3 HeapObject) (var4 Addr) (var5 Heap) (var6 Addr) (var7 Int)) (or (not (and (_Glue11 var7 var6 var5 var4 var3) (and (and (and (and (and (and (= (getnode var3) var2) (= (|node::next| var2) var1)) (not (= var1 var6))) (not (= var4 var6))) (= (|node::data| var2) (+ var7 (- 1)))) (= defObj var0)) (valid var5 var4)))) (Inv_Heap var4 var0))))
(assert (forall ((var0 Heap) (var1 HeapObject) (var2 Addr) (var3 node) (var4 HeapObject) (var5 Addr) (var6 Heap) (var7 Addr) (var8 Int)) (or (not (and (_Glue11 var8 var7 var6 var5 var4) (and (and (and (and (and (and (= (getnode var4) var3) (= (|node::next| var3) var2)) (not (= var2 var7))) (not (= var5 var7))) (= (|node::data| var3) (+ var8 (- 1)))) (= defObj var1)) (= (write var6 var5 var1) var0)))) (inv_main_20 var0 var7 var8 var2))))
(assert (forall ((var0 Addr) (var1 Int) (var2 Heap) (var3 HeapObject) (var4 Addr)) (or (not (and (and (Inv_Heap var4 var3) (inv_main581_3 var2 var1 var4 var0)) (and (= (read var2 var4) var3) (valid var2 var4)))) (_Glue14 var0 var1 var2 var4 var3))))
(assert (forall ((var0 HeapObject) (var1 Addr) (var2 Addr) (var3 Int) (var4 Heap)) (or (not (and (inv_main581_3 var4 var3 var2 var1) (and (= (read var4 var2) var0) (not (valid var4 var2))))) (_Glue14 var1 var3 var4 var2 var0))))
(assert (forall ((var0 HeapObject) (var1 node) (var2 Int) (var3 node) (var4 HeapObject) (var5 Addr) (var6 Heap) (var7 Int) (var8 Addr)) (or (not (and (_Glue14 var8 var7 var6 var5 var4) (and (and (and (and (and (= (getnode var4) var3) (= (|node::data| var3) var2)) (= (node var8 var2) var1)) (= (O_node var1) var0)) (not (<= 0 (+ (+ (- 1) var7) (- 1))))) (valid var6 var5)))) (Inv_Heap var5 var0))))
(assert (forall ((var0 Int) (var1 Addr) (var2 Heap) (var3 HeapObject) (var4 node) (var5 Int) (var6 node) (var7 HeapObject) (var8 Addr) (var9 Heap) (var10 Int) (var11 Addr)) (or (not (and (_Glue14 var11 var10 var9 var8 var7) (and (and (and (and (and (and (and (= (getnode var7) var6) (= (|node::data| var6) var5)) (= (node var11 var5) var4)) (= (O_node var4) var3)) (= (write var9 var8 var3) var2)) (not (<= 0 (+ (+ (- 1) var10) (- 1))))) (= var1 var11)) (= var0 1)))) (inv_main600_3 var2 var11 var0 var1))))
(assert (forall ((var0 Int) (var1 Addr) (var2 Heap) (var3 HeapObject) (var4 Addr)) (or (not (and (and (Inv_Heap var4 var3) (inv_main600_3 var2 var1 (+ var0 (- 1)) var4)) (and (= (read var2 var4) var3) (valid var2 var4)))) (_Glue0 var1 var2 var0 var4 var3))))
(assert (forall ((var0 HeapObject) (var1 Addr) (var2 Int) (var3 Addr) (var4 Heap)) (or (not (and (inv_main600_3 var4 var3 (+ var2 (- 1)) var1) (and (= (read var4 var1) var0) (not (valid var4 var1))))) (_Glue0 var3 var4 var2 var1 var0))))
(assert (forall ((var0 HeapObject) (var1 node) (var2 Addr) (var3 node) (var4 HeapObject) (var5 Addr) (var6 Int) (var7 Heap) (var8 Addr)) (or (not (and (_Glue0 var8 var7 var6 var5 var4) (and (and (and (and (and (= (getnode var4) var3) (= (|node::data| var3) 1)) (= (|node::next| var3) var2)) (= (node var2 (+ var6 (- 1))) var1)) (= (O_node var1) var0)) (valid var7 var5)))) (Inv_Heap var5 var0))))
(assert (forall ((var0 HeapObject) (var1 node) (var2 Addr) (var3 node) (var4 Addr) (var5 node) (var6 Heap) (var7 HeapObject) (var8 Int) (var9 Heap) (var10 Addr) (var11 HeapObject) (var12 Addr)) (or (not (and (and (Inv_Heap var12 var11) (_Glue0 var10 var9 var8 var12 var7)) (and (and (and (and (and (and (and (and (and (and (and (= (read var6 var12) var11) (= (getnode var11) var5)) (= (|node::next| var5) var4)) (not (= var4 var10))) (valid var6 var12)) true) (= (getnode var7) var3)) (= (|node::data| var3) 1)) (= (|node::next| var3) var2)) (= (node var2 (+ var8 (- 1))) var1)) (= (O_node var1) var0)) (= (write var9 var12 var0) var6)))) (inv_main600_3 var6 var10 var8 var4))))
(assert (forall ((var0 HeapObject) (var1 node) (var2 Addr) (var3 node) (var4 Addr) (var5 node) (var6 HeapObject) (var7 Heap) (var8 HeapObject) (var9 Addr) (var10 Int) (var11 Heap) (var12 Addr)) (or (not (and (_Glue0 var12 var11 var10 var9 var8) (and (and (and (and (and (and (and (and (and (and (= (read var7 var9) var6) (= (getnode var6) var5)) (= (|node::next| var5) var4)) (not (= var4 var12))) (not (valid var7 var9))) (= (getnode var8) var3)) (= (|node::data| var3) 1)) (= (|node::next| var3) var2)) (= (node var2 (+ var10 (- 1))) var1)) (= (O_node var1) var0)) (= (write var11 var9 var0) var7)))) (inv_main600_3 var7 var12 var10 var4))))
(assert (forall ((var0 AllocResHeap) (var1 HeapObject) (var2 node) (var3 Addr) (var4 Addr) (var5 Int) (var6 Heap)) (or (not (and (inv_main581_3 var6 (+ var5 1) var4 var3) (and (= (O_node var2) var1) (= (alloc var6 var1) var0)))) (Inv_Heap (newAddr var0) var1))))
(assert (forall ((var0 AllocResHeap) (var1 HeapObject) (var2 node) (var3 Heap) (var4 Addr) (var5 Addr) (var6 Addr) (var7 Int) (var8 Heap) (var9 HeapObject) (var10 Addr)) (or (not (and (and (Inv_Heap var10 var9) (inv_main581_3 var8 (+ var7 1) var6 var5)) (and (and (and (and (and (and (and (not (= var4 var10)) (= (read var3 var10) var9)) (valid var3 var10)) true) (= (O_node var2) var1)) (= (AllocResHeap var3 var10) var0)) (= nullAddr var4)) (= (alloc var8 var1) var0)))) (_Glue8 var5 var7 var6 var10 var3 var9))))
(assert (forall ((var0 AllocResHeap) (var1 HeapObject) (var2 node) (var3 HeapObject) (var4 Heap) (var5 Addr) (var6 Addr) (var7 Addr) (var8 Addr) (var9 Int) (var10 Heap)) (or (not (and (inv_main581_3 var10 (+ var9 1) var8 var7) (and (and (and (and (and (and (not (= var6 var5)) (= (read var4 var5) var3)) (not (valid var4 var5))) (= (O_node var2) var1)) (= (AllocResHeap var4 var5) var0)) (= nullAddr var6)) (= (alloc var10 var1) var0)))) (_Glue8 var7 var9 var8 var5 var4 var3))))
(assert (forall ((var0 HeapObject) (var1 node) (var2 Int) (var3 node) (var4 HeapObject) (var5 Heap) (var6 Addr) (var7 Addr) (var8 Int) (var9 Addr)) (or (not (and (_Glue8 var9 var8 var7 var6 var5 var4) (and (and (and (and (= (getnode var4) var3) (= (|node::data| var3) var2)) (= (node var9 var2) var1)) (= (O_node var1) var0)) (valid var5 var6)))) (Inv_Heap var6 var0))))
(assert (forall ((var0 HeapObject) (var1 node) (var2 Int) (var3 node) (var4 Heap) (var5 HeapObject) (var6 Heap) (var7 Addr) (var8 Int) (var9 Addr) (var10 HeapObject) (var11 Addr)) (or (not (and (and (Inv_Heap var11 var10) (_Glue8 var9 var8 var7 var11 var6 var5)) (and (and (and (and (and (and (and (= (read var4 var11) var10) (valid var4 var11)) true) (= (getnode var5) var3)) (= (|node::data| var3) var2)) (= (node var9 var2) var1)) (= (O_node var1) var0)) (= (write var6 var11 var0) var4)))) (_Glue10 var4 var8 var7 var11 var10))))
(assert (forall ((var0 HeapObject) (var1 node) (var2 Int) (var3 node) (var4 HeapObject) (var5 Heap) (var6 HeapObject) (var7 Heap) (var8 Addr) (var9 Addr) (var10 Int) (var11 Addr)) (or (not (and (_Glue8 var11 var10 var9 var8 var7 var6) (and (and (and (and (and (and (= (read var5 var8) var4) (not (valid var5 var8))) (= (getnode var6) var3)) (= (|node::data| var3) var2)) (= (node var11 var2) var1)) (= (O_node var1) var0)) (= (write var7 var8 var0) var5)))) (_Glue10 var5 var10 var9 var8 var4))))
(assert (forall ((var0 HeapObject) (var1 node) (var2 Addr) (var3 node) (var4 HeapObject) (var5 Addr) (var6 Addr) (var7 Int) (var8 Heap)) (or (not (and (_Glue10 var8 var7 var6 var5 var4) (and (and (and (and (and (= (getnode var4) var3) (= (|node::next| var3) var2)) (= (node var2 1) var1)) (= (O_node var1) var0)) (<= 0 (+ (+ (- 1) (+ var7 1)) (- 1)))) (valid var8 var5)))) (Inv_Heap var5 var0))))
(assert (forall ((var0 Heap) (var1 HeapObject) (var2 node) (var3 Addr) (var4 node) (var5 HeapObject) (var6 Addr) (var7 Addr) (var8 Int) (var9 Heap)) (or (not (and (_Glue10 var9 var8 var7 var6 var5) (and (and (and (and (and (= (getnode var5) var4) (= (|node::next| var4) var3)) (= (node var3 1) var2)) (= (O_node var2) var1)) (= (write var9 var6 var1) var0)) (<= 0 (+ (+ (- 1) (+ var8 1)) (- 1)))))) (inv_main581_3 var0 var8 var7 var6))))
(assert (not inv_main_28))
(assert (forall ((var0 node) (var1 Int) (var2 Int) (var3 Addr) (var4 Heap) (var5 HeapObject) (var6 Addr)) (or (not (and (and (Inv_Heap var6 var5) (inv_main600_3 var4 var3 var2 var6)) (and (and (and (and (not (= 1 var1)) (= (read var4 var6) var5)) (= (getnode var5) var0)) (= (|node::data| var0) var1)) (valid var4 var6)))) inv_main_28)))
(assert (forall ((var0 node) (var1 HeapObject) (var2 Int) (var3 Addr) (var4 Int) (var5 Addr) (var6 Heap)) (or (not (and (inv_main600_3 var6 var5 var4 var3) (and (and (and (and (not (= 1 var2)) (= (read var6 var3) var1)) (= (getnode var1) var0)) (= (|node::data| var0) var2)) (not (valid var6 var3))))) inv_main_28)))
(assert (forall ((var0 node) (var1 Addr) (var2 Int) (var3 Heap) (var4 HeapObject) (var5 Addr)) (or (not (and (and (Inv_Heap var5 var4) (inv_main_20 var3 var5 (+ var2 (- 1)) var5)) (and (and (and (and (and (not (= var1 var5)) (= (read var3 var5) var4)) (= (getnode var4) var0)) (= (|node::data| var0) (+ var2 (- 1)))) (= (|node::next| var0) var1)) (valid var3 var5)))) (inv_main_20 var3 var5 var2 var1))))
(assert (forall ((var0 node) (var1 HeapObject) (var2 Addr) (var3 Int) (var4 Addr) (var5 Heap)) (or (not (and (inv_main_20 var5 var4 (+ var3 (- 1)) var4) (and (and (and (and (and (not (= var2 var4)) (= (read var5 var4) var1)) (= (getnode var1) var0)) (= (|node::data| var0) (+ var3 (- 1)))) (= (|node::next| var0) var2)) (not (valid var5 var4))))) (inv_main_20 var5 var4 var3 var2))))
(assert (forall ((var0 Addr) (var1 Int) (var2 Addr) (var3 Heap) (var4 HeapObject) (var5 Addr)) (or (not (and (and (Inv_Heap var5 var4) (inv_main600_3 var3 var2 (+ var1 4) var5)) (and (= (read var3 var5) var4) (valid var3 var5)))) (_Glue12 var0 var3 var1 var5 var4))))
(assert (forall ((var0 Addr) (var1 HeapObject) (var2 Addr) (var3 Int) (var4 Addr) (var5 Heap)) (or (not (and (inv_main600_3 var5 var4 (+ var3 4) var2) (and (= (read var5 var2) var1) (not (valid var5 var2))))) (_Glue12 var0 var5 var3 var2 var1))))
(assert (forall ((var0 HeapObject) (var1 node) (var2 Addr) (var3 node) (var4 Addr) (var5 HeapObject) (var6 Addr) (var7 Int) (var8 Heap) (var9 Addr)) (or (not (and (and (_Glue12 var9 var8 var7 var6 var5) (inv_main600_3 var8 var4 (+ var7 4) var6)) (and (and (and (and (and (= (getnode var5) var3) (= (|node::data| var3) 1)) (= (|node::next| var3) var2)) (= (node var2 (+ var7 4)) var1)) (= (O_node var1) var0)) (valid var8 var6)))) (Inv_Heap var6 var0))))
(assert (forall ((var0 Heap) (var1 HeapObject) (var2 node) (var3 Addr) (var4 node) (var5 Addr) (var6 HeapObject) (var7 Addr) (var8 Int) (var9 Heap) (var10 Addr)) (or (not (and (and (_Glue12 var10 var9 var8 var7 var6) (inv_main600_3 var9 var5 (+ var8 4) var7)) (and (and (and (and (and (= (getnode var6) var4) (= (|node::data| var4) 1)) (= (|node::next| var4) var3)) (= (node var3 (+ var8 4)) var2)) (= (O_node var2) var1)) (= (write var9 var7 var1) var0)))) (_Glue13 var7 var8 var10 var0))))
(assert (forall ((var0 Addr) (var1 node) (var2 Heap) (var3 Heap) (var4 Addr) (var5 Int) (var6 HeapObject) (var7 Addr)) (or (not (and (and (and (Inv_Heap var7 var6) (_Glue13 var7 var5 var4 var3)) (inv_main600_3 var2 var4 (+ var5 4) var7)) (and (and (and (and (= (read var3 var7) var6) (= (getnode var6) var1)) (= (|node::next| var1) var4)) (valid var3 var7)) (= var0 var4)))) (inv_main_20 var3 var4 var5 var0))))
(assert (forall ((var0 Addr) (var1 node) (var2 HeapObject) (var3 Heap) (var4 Heap) (var5 Addr) (var6 Int) (var7 Addr)) (or (not (and (and (_Glue13 var7 var6 var5 var4) (inv_main600_3 var3 var5 (+ var6 4) var7)) (and (and (and (and (= (read var4 var7) var2) (= (getnode var2) var1)) (= (|node::next| var1) var5)) (not (valid var4 var7))) (= var0 var5)))) (inv_main_20 var4 var5 var6 var0))))
(assert (forall ((var0 AllocResHeap) (var1 Heap) (var2 HeapObject) (var3 node)) (or (not (and (and (= (O_node var3) var2) (= (alloc var1 var2) var0)) (= emptyHeap var1))) (Inv_Heap (newAddr var0) var2))))
(assert (forall ((var0 Heap) (var1 HeapObject) (var2 node) (var3 AllocResHeap) (var4 Heap) (var5 Addr) (var6 HeapObject) (var7 Addr)) (or (not (and (Inv_Heap var7 var6) (and (and (and (and (and (and (and (not (= var5 var7)) (= (read var4 var7) var6)) (valid var4 var7)) (= (AllocResHeap var4 var7) var3)) (= (O_node var2) var1)) (= (alloc var0 var1) var3)) (= nullAddr var5)) (= emptyHeap var0)))) (_Glue4 var7 var4 var6))))
(assert (forall ((var0 Heap) (var1 HeapObject) (var2 node) (var3 AllocResHeap) (var4 HeapObject) (var5 Heap) (var6 Addr) (var7 Addr)) (or (not (and (and (and (and (and (and (and (not (= var7 var6)) (= (read var5 var6) var4)) (not (valid var5 var6))) (= (AllocResHeap var5 var6) var3)) (= (O_node var2) var1)) (= (alloc var0 var1) var3)) (= nullAddr var7)) (= emptyHeap var0))) (_Glue4 var6 var5 var4))))
(assert (forall ((var0 HeapObject) (var1 node) (var2 Int) (var3 node) (var4 HeapObject) (var5 Heap) (var6 Addr)) (or (not (and (_Glue4 var6 var5 var4) (and (and (and (and (= (getnode var4) var3) (= (|node::data| var3) var2)) (= (node var6 var2) var1)) (= (O_node var1) var0)) (valid var5 var6)))) (Inv_Heap var6 var0))))
(assert (forall ((var0 HeapObject) (var1 node) (var2 Int) (var3 node) (var4 Heap) (var5 HeapObject) (var6 Heap) (var7 HeapObject) (var8 Addr)) (or (not (and (and (Inv_Heap var8 var7) (_Glue4 var8 var6 var5)) (and (and (and (and (and (and (= (read var4 var8) var7) (valid var4 var8)) (= (getnode var5) var3)) (= (|node::data| var3) var2)) (= (node var8 var2) var1)) (= (O_node var1) var0)) (= (write var6 var8 var0) var4)))) (_Glue6 var4 var8 var7))))
(assert (forall ((var0 HeapObject) (var1 node) (var2 Int) (var3 node) (var4 HeapObject) (var5 Heap) (var6 HeapObject) (var7 Heap) (var8 Addr)) (or (not (and (_Glue4 var8 var7 var6) (and (and (and (and (and (and (= (read var5 var8) var4) (not (valid var5 var8))) (= (getnode var6) var3)) (= (|node::data| var3) var2)) (= (node var8 var2) var1)) (= (O_node var1) var0)) (= (write var7 var8 var0) var5)))) (_Glue6 var5 var8 var4))))
(assert (forall ((var0 HeapObject) (var1 node) (var2 Addr) (var3 node) (var4 HeapObject) (var5 Addr) (var6 Heap)) (or (not (and (_Glue6 var6 var5 var4) (and (and (and (and (= (getnode var4) var3) (= (|node::next| var3) var2)) (= (node var2 1) var1)) (= (O_node var1) var0)) (valid var6 var5)))) (Inv_Heap var5 var0))))
(assert (forall ((var0 Int) (var1 Addr) (var2 Heap) (var3 HeapObject) (var4 node) (var5 Addr) (var6 node) (var7 HeapObject) (var8 Addr) (var9 Heap)) (or (not (and (_Glue6 var9 var8 var7) (and (and (and (and (and (and (= (getnode var7) var6) (= (|node::next| var6) var5)) (= (node var5 1) var4)) (= (O_node var4) var3)) (= (write var9 var8 var3) var2)) (= var1 var8)) (= var0 5)))) (inv_main581_3 var2 var0 var8 var1))))
(check-sat)
